WARNING: for repeatability, setting FPU to use double precision
============================[ Problem Statistics ]=============================
|                                                                             |
|  Number of variables:           100                                         |
|  Number of clauses:             449                                         |
|  Parse time:                   0.00 s                                       |
|  Eliminated clauses:           0.00 Mb                                      |
|  Simplification time:          0.00 s                                       |
|                                                                             |
============================[ Search Statistics ]==============================
| Conflicts |          ORIGINAL         |          LEARNT          | Progress |
|           |    Vars  Clauses Literals |    Limit  Clauses Lit/Cl |          |
===============================================================================
|       100 |      97      440     1333 |      161      100      7 |  0.010 % |
===============================================================================
restarts              : 2
conflicts             : 196            (65618 /sec)
decisions             : 268            (0.00 % random) (89722 /sec)
propagations          : 4194           (1404084 /sec)
conflict literals     : 1299           (16.25 % deleted)
Memory used           : 13.00 MB
CPU time              : 0.002987 s

SATISFIABLE
